instances/ins25.dzn
width = 32;
n = 27;
dimensions = [|4, 18
|4, 11
|4, 10
|4, 7
|4, 6
|4, 5
|4, 4
|4, 3
|3, 27
|3, 25
|3, 24
|3, 23
|3, 22
|3, 18
|3, 15
|3, 14
|3, 13
|3, 12
|3, 11
|3, 10
|3, 9
|3, 8
|3, 7
|3, 6
|3, 5
|3, 4
|3, 3|];