create_times/ins25.txt
x_coordinates = [14, 0, 7, 7, 7, 3, 24, 7, 4, 29, 1, 11, 23, 20, 11, 17, 26, 28, 19, 8, 26, 14, 22, 19, 14, 23, 14]
y_coordinates = [0, 5, 6, 28, 0, 0, 36, 35, 13, 3, 16, 17, 14, 22, 2, 25, 6, 28, 11, 16, 19, 18, 7, 2, 33, 3, 30]
x_dimensions = [4, 4, 4, 4, 4, 4, 4, 4, 3, 3, 3, 3, 3, 3, 3, 3, 3, 3, 3, 3, 3, 3, 3, 3, 3, 3, 3]
y_dimensions = [18, 11, 10, 7, 6, 5, 4, 3, 27, 25, 24, 23, 22, 18, 15, 14, 13, 12, 11, 10, 9, 8, 7, 6, 5, 4, 3]
minimum_height = 40
----------
x_coordinates = [12, 24, 28, 13, 17, 17, 6, 22, 16, 0, 26, 20, 23, 3, 10, 0, 9, 6, 21, 13, 29, 29, 5, 29, 29, 7, 19]
y_coordinates = [0, 27, 29, 28, 27, 34, 22, 23, 0, 0, 3, 0, 1, 14, 21, 25, 8, 10, 26, 18, 15, 7, 32, 1, 24, 26, 23]
x_dimensions = [4, 4, 4, 4, 4, 4, 4, 4, 3, 3, 3, 3, 3, 3, 3, 3, 3, 3, 3, 3, 3, 3, 3, 3, 3, 3, 3]
y_dimensions = [18, 11, 10, 7, 6, 5, 4, 3, 27, 25, 24, 23, 22, 18, 15, 14, 13, 12, 11, 10, 9, 8, 7, 6, 5, 4, 3]
minimum_height = 39
----------
x_coordinates = [13, 28, 6, 24, 23, 19, 14, 24, 21, 7, 4, 29, 0, 10, 18, 3, 10, 13, 26, 26, 17, 0, 10, 1, 16, 28, 16]
y_coordinates = [4, 27, 25, 22, 32, 33, 22, 29, 5, 0, 0, 0, 8, 20, 10, 24, 0, 26, 11, 1, 1, 30, 13, 2, 26, 23, 31]
x_dimensions = [4, 4, 4, 4, 4, 4, 4, 4, 3, 3, 3, 3, 3, 3, 3, 3, 3, 3, 3, 3, 3, 3, 3, 3, 3, 3, 3]
y_dimensions = [18, 11, 10, 7, 6, 5, 4, 3, 27, 25, 24, 23, 22, 18, 15, 14, 13, 12, 11, 10, 9, 8, 7, 6, 5, 4, 3]
minimum_height = 38
----------
x_coordinates = [13, 25, 3, 24, 25, 3, 3, 0, 29, 10, 7, 22, 0, 19, 19, 4, 16, 10, 25, 28, 0, 7, 13, 15, 13, 21, 22]
y_coordinates = [6, 20, 3, 1, 31, 13, 18, 34, 10, 0, 3, 12, 12, 19, 4, 23, 24, 25, 9, 0, 3, 29, 24, 0, 32, 0, 9]
x_dimensions = [4, 4, 4, 4, 4, 4, 4, 4, 3, 3, 3, 3, 3, 3, 3, 3, 3, 3, 3, 3, 3, 3, 3, 3, 3, 3, 3]
y_dimensions = [18, 11, 10, 7, 6, 5, 4, 3, 27, 25, 24, 23, 22, 18, 15, 14, 13, 12, 11, 10, 9, 8, 7, 6, 5, 4, 3]
minimum_height = 37
----------
x_coordinates = [14, 0, 7, 25, 26, 15, 1, 26, 29, 11, 8, 23, 4, 19, 20, 5, 14, 1, 26, 22, 11, 2, 17, 17, 26, 25, 20]
y_coordinates = [5, 12, 26, 4, 30, 0, 0, 27, 0, 0, 2, 13, 14, 0, 18, 0, 23, 24, 11, 3, 25, 4, 29, 23, 22, 0, 33]
x_dimensions = [4, 4, 4, 4, 4, 4, 4, 4, 3, 3, 3, 3, 3, 3, 3, 3, 3, 3, 3, 3, 3, 3, 3, 3, 3, 3, 3]
y_dimensions = [18, 11, 10, 7, 6, 5, 4, 3, 27, 25, 24, 23, 22, 18, 15, 14, 13, 12, 11, 10, 9, 8, 7, 6, 5, 4, 3]
minimum_height = 36
----------
x_coordinates = [14, 12, 10, 21, 5, 12, 1, 1, 22, 28, 3, 9, 19, 25, 6, 6, 18, 0, 0, 25, 16, 16, 26, 29, 0, 3, 29]
y_coordinates = [0, 24, 2, 1, 29, 19, 28, 32, 8, 10, 4, 12, 13, 7, 0, 15, 0, 5, 17, 25, 26, 18, 0, 3, 0, 0, 0]
x_dimensions = [4, 4, 4, 4, 4, 4, 4, 4, 3, 3, 3, 3, 3, 3, 3, 3, 3, 3, 3, 3, 3, 3, 3, 3, 3, 3, 3]
y_dimensions = [18, 11, 10, 7, 6, 5, 4, 3, 27, 25, 24, 23, 22, 18, 15, 14, 13, 12, 11, 10, 9, 8, 7, 6, 5, 4, 3]
minimum_height = 35
----------
x_coordinates = [9, 16, 16, 12, 9, 28, 1, 5, 20, 13, 6, 26, 3, 0, 29, 29, 23, 23, 17, 9, 23, 0, 3, 6, 26, 0, 20]
y_coordinates = [0, 2, 24, 27, 18, 0, 0, 1, 3, 2, 10, 11, 4, 16, 19, 5, 12, 0, 13, 24, 25, 8, 27, 4, 6, 4, 31]
x_dimensions = [4, 4, 4, 4, 4, 4, 4, 4, 3, 3, 3, 3, 3, 3, 3, 3, 3, 3, 3, 3, 3, 3, 3, 3, 3, 3, 3]
y_dimensions = [18, 11, 10, 7, 6, 5, 4, 3, 27, 25, 24, 23, 22, 18, 15, 14, 13, 12, 11, 10, 9, 8, 7, 6, 5, 4, 3]
minimum_height = 34
----------
x_coordinates = [13, 13, 9, 25, 6, 21, 13, 21, 6, 20, 23, 26, 3, 17, 17, 0, 0, 10, 10, 29, 29, 29, 3, 29, 0, 3, 26]
y_coordinates = [0, 18, 11, 0, 0, 3, 29, 0, 6, 8, 9, 10, 7, 0, 18, 19, 5, 21, 0, 14, 24, 6, 0, 0, 0, 29, 7]
x_dimensions = [4, 4, 4, 4, 4, 4, 4, 4, 3, 3, 3, 3, 3, 3, 3, 3, 3, 3, 3, 3, 3, 3, 3, 3, 3, 3, 3]
y_dimensions = [18, 11, 10, 7, 6, 5, 4, 3, 27, 25, 24, 23, 22, 18, 15, 14, 13, 12, 11, 10, 9, 8, 7, 6, 5, 4, 3]
minimum_height = 33
----------
% Pruned 50000 learnt clauses
% Pruned 50000 learnt clauses
% Pruned 49990 learnt clauses
% Pruned 49995 learnt clauses
% Pruned 50000 learnt clauses
% Pruned 50000 learnt clauses
% Pruned 49993 learnt clauses
x_coordinates = [10, 6, 6, 6, 10, 10, 6, 10, 20, 23, 14, 3, 26, 29, 17, 29, 0, 0, 17, 26, 3, 14, 23, 17, 20, 0, 0]
y_coordinates = [5, 21, 11, 0, 26, 0, 7, 23, 0, 7, 8, 0, 0, 0, 6, 18, 19, 3, 21, 22, 23, 0, 0, 0, 27, 15, 0]
x_dimensions = [4, 4, 4, 4, 4, 4, 4, 4, 3, 3, 3, 3, 3, 3, 3, 3, 3, 3, 3, 3, 3, 3, 3, 3, 3, 3, 3]
y_dimensions = [18, 11, 10, 7, 6, 5, 4, 3, 27, 25, 24, 23, 22, 18, 15, 14, 13, 12, 11, 10, 9, 8, 7, 6, 5, 4, 3]
minimum_height = 32
----------
==========
%%%mzn-stat: nodes=631868
%%%mzn-stat: failures=434554
%%%mzn-stat: restarts=7747
%%%mzn-stat: variables=5971
%%%mzn-stat: intVars=129
%%%mzn-stat: boolVariables=5840
%%%mzn-stat: propagators=3051
%%%mzn-stat: propagations=208696905
%%%mzn-stat: peakDepth=138
%%%mzn-stat: nogoods=434554
%%%mzn-stat: backjumps=52882
%%%mzn-stat: peakMem=0.00
%%%mzn-stat: time=159.854
%%%mzn-stat: initTime=0.027
%%%mzn-stat: solveTime=159.827
%%%mzn-stat: objective=32
%%%mzn-stat: optTime=159.827
%%%mzn-stat: baseMem=0.00
%%%mzn-stat: trailMem=0.04
%%%mzn-stat: randomSeed=1657196237
